50
1000
797
793
793
791
767
761
752
752
746
745
741
739
735
734
721
716
707
659
651
637
630
629
596
587
558
522
512
509
508
507
504
493
485
471
471
470
465
434
429
428
425
403
388
316
265
249
247
231
209
204
